c CNF file corresponding to a (partial) station packing problem.
p cnf 781 243
1 2 3 4 5 6 7 8 9 10 11 12 13 14 0
-1 -2 0
-1 -3 0
-1 -4 0
-1 -5 0
-1 -6 0
-1 -7 0
-1 -8 0
-1 -9 0
-1 -10 0
-1 -11 0
-1 -12 0
-1 -13 0
-1 -14 0
-2 -3 0
-2 -4 0
-2 -5 0
-2 -6 0
-2 -7 0
-2 -8 0
-2 -9 0
-2 -10 0
-2 -11 0
-2 -12 0
-2 -13 0
-2 -14 0
-3 -4 0
-3 -5 0
-3 -6 0
-3 -7 0
-3 -8 0
-3 -9 0
-3 -10 0
-3 -11 0
-3 -12 0
-3 -13 0
-3 -14 0
-4 -5 0
-4 -6 0
-4 -7 0
-4 -8 0
-4 -9 0
-4 -10 0
-4 -11 0
-4 -12 0
-4 -13 0
-4 -14 0
-5 -6 0
-5 -7 0
-5 -8 0
-5 -9 0
-5 -10 0
-5 -11 0
-5 -12 0
-5 -13 0
-5 -14 0
-6 -7 0
-6 -8 0
-6 -9 0
-6 -10 0
-6 -11 0
-6 -12 0
-6 -13 0
-6 -14 0
-7 -8 0
-7 -9 0
-7 -10 0
-7 -11 0
-7 -12 0
-7 -13 0
-7 -14 0
-8 -9 0
-8 -10 0
-8 -11 0
-8 -12 0
-8 -13 0
-8 -14 0
-9 -10 0
-9 -11 0
-9 -12 0
-9 -13 0
-9 -14 0
-10 -11 0
-10 -12 0
-10 -13 0
-10 -14 0
-11 -12 0
-11 -13 0
-11 -14 0
-12 -13 0
-12 -14 0
-13 -14 0
-779 -12 0
-8 -775 0
-14 -781 0
-7 -774 0
-1 -767 0
-11 -778 0
-3 -769 0
-776 -9 0
-771 -4 0
-768 -2 0
-772 -5 0
-773 -6 0
-10 -777 0
-780 -13 0
765 766 767 768 769 770 771 772 773 774 775 776 777 778 779 780 781 0
-765 -766 0
-765 -767 0
-765 -768 0
-765 -769 0
-765 -770 0
-765 -771 0
-765 -772 0
-765 -773 0
-765 -774 0
-765 -775 0
-765 -776 0
-765 -777 0
-765 -778 0
-765 -779 0
-765 -780 0
-765 -781 0
-766 -767 0
-766 -768 0
-766 -769 0
-766 -770 0
-766 -771 0
-766 -772 0
-766 -773 0
-766 -774 0
-766 -775 0
-766 -776 0
-766 -777 0
-766 -778 0
-766 -779 0
-766 -780 0
-766 -781 0
-767 -768 0
-767 -769 0
-767 -770 0
-767 -771 0
-767 -772 0
-767 -773 0
-767 -774 0
-767 -775 0
-767 -776 0
-767 -777 0
-767 -778 0
-767 -779 0
-767 -780 0
-767 -781 0
-768 -769 0
-768 -770 0
-768 -771 0
-768 -772 0
-768 -773 0
-768 -774 0
-768 -775 0
-768 -776 0
-768 -777 0
-768 -778 0
-768 -779 0
-768 -780 0
-768 -781 0
-769 -770 0
-769 -771 0
-769 -772 0
-769 -773 0
-769 -774 0
-769 -775 0
-769 -776 0
-769 -777 0
-769 -778 0
-769 -779 0
-769 -780 0
-769 -781 0
-770 -771 0
-770 -772 0
-770 -773 0
-770 -774 0
-770 -775 0
-770 -776 0
-770 -777 0
-770 -778 0
-770 -779 0
-770 -780 0
-770 -781 0
-771 -772 0
-771 -773 0
-771 -774 0
-771 -775 0
-771 -776 0
-771 -777 0
-771 -778 0
-771 -779 0
-771 -780 0
-771 -781 0
-772 -773 0
-772 -774 0
-772 -775 0
-772 -776 0
-772 -777 0
-772 -778 0
-772 -779 0
-772 -780 0
-772 -781 0
-773 -774 0
-773 -775 0
-773 -776 0
-773 -777 0
-773 -778 0
-773 -779 0
-773 -780 0
-773 -781 0
-774 -775 0
-774 -776 0
-774 -777 0
-774 -778 0
-774 -779 0
-774 -780 0
-774 -781 0
-775 -776 0
-775 -777 0
-775 -778 0
-775 -779 0
-775 -780 0
-775 -781 0
-776 -777 0
-776 -778 0
-776 -779 0
-776 -780 0
-776 -781 0
-777 -778 0
-777 -779 0
-777 -780 0
-777 -781 0
-778 -779 0
-778 -780 0
-778 -781 0
-779 -780 0
-779 -781 0
-780 -781 0
